1600 3200
1 2 3
1 41 5
2 3 1
2 42 2
3 4 1
3 43 4
4 5 1
4 44 5
5 6 4
5 45 4
6 7 3
6 46 5
7 8 4
7 47 3
8 9 1
8 48 2
9 10 2
9 49 5
10 11 4
10 50 5
11 12 2
11 51 3
12 13 5
12 52 1
13 14 1
13 53 1
14 15 5
14 54 2
15 16 5
15 55 1
16 17 3
16 56 3
17 18 1
17 57 4
18 19 3
18 58 4
19 20 1
19 59 2
20 21 3
20 60 1
21 22 4
21 61 1
22 23 3
22 62 3
23 24 5
23 63 1
24 25 4
24 64 3
25 26 1
25 65 5
26 27 3
26 66 1
27 28 3
27 67 3
28 29 1
28 68 5
29 30 3
29 69 1
30 31 3
30 70 1
31 32 2
31 71 4
32 33 2
32 72 5
33 34 2
33 73 3
34 35 3
34 74 3
35 36 5
35 75 2
36 37 4
36 76 4
37 38 3
37 77 3
38 39 4
38 78 3
39 40 4
39 79 3
40 80 3
41 42 5
41 81 3
42 43 2
42 82 3
43 44 2
43 83 3
44 45 3
44 84 4
45 46 1
45 85 1
46 47 4
46 86 1
47 48 5
47 87 5
48 49 5
48 88 3
49 50 5
49 89 3
50 51 4
50 90 2
51 52 2
51 91 4
52 53 3
52 92 2
53 54 5
53 93 3
54 55 1
54 94 2
55 56 4
55 95 4
56 57 3
56 96 2
57 58 4
57 97 2
58 59 5
58 98 4
59 60 4
59 99 2
60 61 5
60 100 4
61 62 5
61 101 3
62 63 3
62 102 5
63 64 2
63 103 1
64 65 2
64 104 4
65 66 2
65 105 5
66 67 4
66 106 5
67 68 5
67 107 3
68 69 1
68 108 2
69 70 4
69 109 1
70 71 3
70 110 4
71 72 4
71 111 2
72 73 4
72 112 4
73 74 2
73 113 5
74 75 5
74 114 3
75 76 5
75 115 3
76 77 2
76 116 1
77 78 5
77 117 5
78 79 2
78 118 4
79 80 5
79 119 4
80 120 4
81 82 2
81 121 3
82 83 2
82 122 1
83 84 4
83 123 1
84 85 5
84 124 2
85 86 5
85 125 5
86 87 4
86 126 4
87 88 5
87 127 4
88 89 4
88 128 1
89 90 1
89 129 5
90 91 5
90 130 1
91 92 3
91 131 1
92 93 4
92 132 4
93 94 5
93 133 2
94 95 2
94 134 2
95 96 5
95 135 5
96 97 5
96 136 4
97 98 4
97 137 1
98 99 3
98 138 2
99 100 4
99 139 1
100 101 4
100 140 1
101 102 2
101 141 2
102 103 5
102 142 5
103 104 1
103 143 5
104 105 2
104 144 4
105 106 1
105 145 1
106 107 2
106 146 1
107 108 1
107 147 3
108 109 3
108 148 4
109 110 5
109 149 5
110 111 5
110 150 5
111 112 4
111 151 3
112 113 4
112 152 2
113 114 1
113 153 2
114 115 1
114 154 2
115 116 4
115 155 4
116 117 1
116 156 2
117 118 2
117 157 3
118 119 4
118 158 2
119 120 4
119 159 2
120 160 1
121 122 5
121 161 3
122 123 4
122 162 3
123 124 4
123 163 5
124 125 2
124 164 3
125 126 2
125 165 5
126 127 3
126 166 3
127 128 3
127 167 2
128 129 4
128 168 5
129 130 1
129 169 3
130 131 1
130 170 1
131 132 5
131 171 3
132 133 3
132 172 4
133 134 2
133 173 4
134 135 1
134 174 3
135 136 2
135 175 2
136 137 5
136 176 5
137 138 4
137 177 3
138 139 1
138 178 4
139 140 5
139 179 2
140 141 1
140 180 4
141 142 1
141 181 5
142 143 3
142 182 5
143 144 5
143 183 3
144 145 2
144 184 1
145 146 4
145 185 1
146 147 1
146 186 4
147 148 1
147 187 2
148 149 5
148 188 4
149 150 2
149 189 2
150 151 3
150 190 4
151 152 4
151 191 2
152 153 3
152 192 4
153 154 3
153 193 5
154 155 1
154 194 5
155 156 3
155 195 5
156 157 1
156 196 1
157 158 2
157 197 1
158 159 2
158 198 4
159 160 2
159 199 1
160 200 2
161 162 2
161 201 5
162 163 5
162 202 3
163 164 2
163 203 5
164 165 3
164 204 5
165 166 2
165 205 1
166 167 1
166 206 2
167 168 4
167 207 3
168 169 3
168 208 5
169 170 5
169 209 4
170 171 1
170 210 5
171 172 5
171 211 4
172 173 4
172 212 2
173 174 4
173 213 5
174 175 4
174 214 1
175 176 1
175 215 1
176 177 3
176 216 5
177 178 1
177 217 1
178 179 3
178 218 1
179 180 4
179 219 1
180 181 1
180 220 4
181 182 1
181 221 5
182 183 5
182 222 5
183 184 3
183 223 3
184 185 2
184 224 4
185 186 3
185 225 4
186 187 4
186 226 3
187 188 3
187 227 1
188 189 1
188 228 2
189 190 2
189 229 4
190 191 3
190 230 5
191 192 5
191 231 3
192 193 2
192 232 1
193 194 1
193 233 3
194 195 5
194 234 3
195 196 2
195 235 1
196 197 3
196 236 5
197 198 1
197 237 4
198 199 4
198 238 3
199 200 3
199 239 4
200 240 2
201 202 2
201 241 4
202 203 1
202 242 3
203 204 2
203 243 2
204 205 4
204 244 3
205 206 2
205 245 3
206 207 4
206 246 1
207 208 2
207 247 4
208 209 4
208 248 2
209 210 5
209 249 4
210 211 4
210 250 1
211 212 5
211 251 2
212 213 4
212 252 1
213 214 3
213 253 4
214 215 5
214 254 1
215 216 4
215 255 2
216 217 1
216 256 3
217 218 1
217 257 1
218 219 2
218 258 5
219 220 2
219 259 3
220 221 5
220 260 5
221 222 5
221 261 5
222 223 4
222 262 4
223 224 5
223 263 2
224 225 4
224 264 1
225 226 5
225 265 2
226 227 1
226 266 4
227 228 3
227 267 2
228 229 3
228 268 2
229 230 5
229 269 5
230 231 3
230 270 5
231 232 2
231 271 5
232 233 5
232 272 4
233 234 3
233 273 5
234 235 3
234 274 2
235 236 5
235 275 4
236 237 3
236 276 1
237 238 2
237 277 4
238 239 1
238 278 1
239 240 5
239 279 4
240 280 2
241 242 1
241 281 2
242 243 5
242 282 2
243 244 1
243 283 1
244 245 1
244 284 2
245 246 2
245 285 3
246 247 3
246 286 1
247 248 3
247 287 2
248 249 3
248 288 3
249 250 3
249 289 2
250 251 2
250 290 2
251 252 4
251 291 2
252 253 5
252 292 1
253 254 2
253 293 1
254 255 4
254 294 4
255 256 1
255 295 1
256 257 1
256 296 1
257 258 3
257 297 5
258 259 4
258 298 4
259 260 5
259 299 5
260 261 1
260 300 5
261 262 4
261 301 2
262 263 5
262 302 5
263 264 3
263 303 4
264 265 3
264 304 4
265 266 1
265 305 1
266 267 2
266 306 5
267 268 5
267 307 3
268 269 1
268 308 5
269 270 5
269 309 3
270 271 1
270 310 5
271 272 3
271 311 5
272 273 2
272 312 5
273 274 3
273 313 2
274 275 2
274 314 3
275 276 1
275 315 3
276 277 1
276 316 1
277 278 1
277 317 3
278 279 4
278 318 2
279 280 3
279 319 1
280 320 5
281 282 3
281 321 3
282 283 2
282 322 3
283 284 4
283 323 5
284 285 3
284 324 3
285 286 1
285 325 1
286 287 5
286 326 3
287 288 4
287 327 3
288 289 2
288 328 4
289 290 3
289 329 2
290 291 4
290 330 5
291 292 1
291 331 4
292 293 2
292 332 5
293 294 5
293 333 1
294 295 5
294 334 4
295 296 3
295 335 4
296 297 2
296 336 3
297 298 3
297 337 1
298 299 4
298 338 4
299 300 5
299 339 4
300 301 4
300 340 5
301 302 4
301 341 2
302 303 2
302 342 5
303 304 2
303 343 3
304 305 1
304 344 5
305 306 5
305 345 1
306 307 2
306 346 3
307 308 1
307 347 4
308 309 2
308 348 4
309 310 1
309 349 1
310 311 4
310 350 5
311 312 5
311 351 4
312 313 5
312 352 2
313 314 4
313 353 3
314 315 2
314 354 1
315 316 1
315 355 3
316 317 1
316 356 1
317 318 3
317 357 3
318 319 4
318 358 1
319 320 1
319 359 3
320 360 2
321 322 3
321 361 2
322 323 1
322 362 1
323 324 4
323 363 3
324 325 5
324 364 1
325 326 1
325 365 5
326 327 3
326 366 5
327 328 3
327 367 4
328 329 4
328 368 5
329 330 1
329 369 4
330 331 5
330 370 5
331 332 2
331 371 3
332 333 5
332 372 4
333 334 4
333 373 5
334 335 3
334 374 5
335 336 3
335 375 2
336 337 5
336 376 3
337 338 5
337 377 1
338 339 4
338 378 4
339 340 1
339 379 4
340 341 3
340 380 4
341 342 3
341 381 4
342 343 5
342 382 5
343 344 2
343 383 3
344 345 3
344 384 2
345 346 3
345 385 2
346 347 5
346 386 3
347 348 2
347 387 5
348 349 1
348 388 1
349 350 2
349 389 3
350 351 4
350 390 5
351 352 4
351 391 3
352 353 2
352 392 4
353 354 3
353 393 1
354 355 2
354 394 1
355 356 2
355 395 4
356 357 1
356 396 5
357 358 3
357 397 3
358 359 4
358 398 4
359 360 4
359 399 2
360 400 5
361 362 3
361 401 5
362 363 5
362 402 1
363 364 5
363 403 4
364 365 5
364 404 5
365 366 1
365 405 2
366 367 1
366 406 5
367 368 4
367 407 2
368 369 3
368 408 2
369 370 4
369 409 1
370 371 3
370 410 4
371 372 1
371 411 2
372 373 2
372 412 2
373 374 4
373 413 1
374 375 3
374 414 3
375 376 2
375 415 5
376 377 5
376 416 1
377 378 2
377 417 5
378 379 2
378 418 3
379 380 2
379 419 4
380 381 4
380 420 4
381 382 3
381 421 1
382 383 5
382 422 2
383 384 4
383 423 4
384 385 1
384 424 5
385 386 1
385 425 4
386 387 4
386 426 4
387 388 2
387 427 5
388 389 5
388 428 3
389 390 1
389 429 2
390 391 3
390 430 5
391 392 3
391 431 5
392 393 4
392 432 5
393 394 3
393 433 3
394 395 1
394 434 5
395 396 4
395 435 1
396 397 3
396 436 4
397 398 3
397 437 1
398 399 5
398 438 4
399 400 4
399 439 4
400 440 5
401 402 4
401 441 5
402 403 1
402 442 4
403 404 5
403 443 2
404 405 1
404 444 5
405 406 5
405 445 5
406 407 3
406 446 1
407 408 4
407 447 2
408 409 4
408 448 4
409 410 2
409 449 2
410 411 4
410 450 2
411 412 1
411 451 2
412 413 2
412 452 1
413 414 2
413 453 3
414 415 4
414 454 2
415 416 4
415 455 2
416 417 4
416 456 3
417 418 3
417 457 5
418 419 3
418 458 5
419 420 2
419 459 5
420 421 1
420 460 2
421 422 3
421 461 1
422 423 2
422 462 1
423 424 2
423 463 1
424 425 5
424 464 2
425 426 1
425 465 5
426 427 2
426 466 3
427 428 1
427 467 2
428 429 5
428 468 4
429 430 3
429 469 2
430 431 1
430 470 3
431 432 1
431 471 4
432 433 2
432 472 5
433 434 3
433 473 2
434 435 1
434 474 2
435 436 3
435 475 4
436 437 3
436 476 4
437 438 1
437 477 5
438 439 4
438 478 1
439 440 1
439 479 2
440 480 4
441 442 5
441 481 4
442 443 3
442 482 5
443 444 2
443 483 2
444 445 4
444 484 1
445 446 1
445 485 4
446 447 5
446 486 4
447 448 3
447 487 4
448 449 1
448 488 3
449 450 2
449 489 5
450 451 4
450 490 3
451 452 4
451 491 1
452 453 1
452 492 2
453 454 3
453 493 3
454 455 5
454 494 4
455 456 4
455 495 5
456 457 1
456 496 4
457 458 5
457 497 1
458 459 3
458 498 1
459 460 3
459 499 1
460 461 3
460 500 3
461 462 4
461 501 5
462 463 1
462 502 3
463 464 4
463 503 4
464 465 4
464 504 2
465 466 1
465 505 4
466 467 2
466 506 2
467 468 3
467 507 3
468 469 5
468 508 1
469 470 3
469 509 5
470 471 4
470 510 3
471 472 1
471 511 5
472 473 1
472 512 3
473 474 3
473 513 1
474 475 4
474 514 2
475 476 1
475 515 4
476 477 5
476 516 3
477 478 3
477 517 3
478 479 5
478 518 5
479 480 3
479 519 1
480 520 2
481 482 2
481 521 5
482 483 2
482 522 2
483 484 3
483 523 4
484 485 5
484 524 2
485 486 3
485 525 3
486 487 3
486 526 3
487 488 3
487 527 3
488 489 2
488 528 1
489 490 5
489 529 2
490 491 1
490 530 2
491 492 3
491 531 2
492 493 4
492 532 1
493 494 1
493 533 1
494 495 5
494 534 3
495 496 4
495 535 4
496 497 1
496 536 1
497 498 1
497 537 1
498 499 3
498 538 2
499 500 1
499 539 3
500 501 5
500 540 2
501 502 3
501 541 1
502 503 4
502 542 3
503 504 3
503 543 1
504 505 4
504 544 5
505 506 5
505 545 1
506 507 2
506 546 4
507 508 1
507 547 1
508 509 3
508 548 3
509 510 4
509 549 3
510 511 3
510 550 1
511 512 3
511 551 5
512 513 3
512 552 5
513 514 3
513 553 3
514 515 1
514 554 2
515 516 1
515 555 2
516 517 3
516 556 2
517 518 5
517 557 1
518 519 5
518 558 2
519 520 2
519 559 1
520 560 1
521 522 4
521 561 1
522 523 5
522 562 5
523 524 3
523 563 2
524 525 2
524 564 1
525 526 2
525 565 2
526 527 3
526 566 2
527 528 2
527 567 5
528 529 3
528 568 2
529 530 2
529 569 5
530 531 4
530 570 2
531 532 3
531 571 5
532 533 5
532 572 3
533 534 4
533 573 2
534 535 2
534 574 5
535 536 3
535 575 3
536 537 3
536 576 2
537 538 5
537 577 1
538 539 2
538 578 3
539 540 5
539 579 4
540 541 2
540 580 5
541 542 2
541 581 1
542 543 4
542 582 3
543 544 1
543 583 2
544 545 1
544 584 5
545 546 2
545 585 4
546 547 1
546 586 4
547 548 1
547 587 3
548 549 4
548 588 2
549 550 2
549 589 5
550 551 4
550 590 2
551 552 1
551 591 2
552 553 3
552 592 1
553 554 3
553 593 5
554 555 1
554 594 1
555 556 5
555 595 2
556 557 1
556 596 4
557 558 4
557 597 2
558 559 2
558 598 4
559 560 3
559 599 1
560 600 5
561 562 3
561 601 4
562 563 3
562 602 1
563 564 5
563 603 3
564 565 4
564 604 5
565 566 3
565 605 5
566 567 3
566 606 4
567 568 2
567 607 2
568 569 2
568 608 5
569 570 5
569 609 1
570 571 1
570 610 2
571 572 4
571 611 5
572 573 1
572 612 2
573 574 1
573 613 2
574 575 5
574 614 3
575 576 4
575 615 2
576 577 3
576 616 2
577 578 1
577 617 1
578 579 5
578 618 5
579 580 1
579 619 4
580 581 4
580 620 5
581 582 4
581 621 5
582 583 2
582 622 2
583 584 5
583 623 2
584 585 2
584 624 3
585 586 5
585 625 1
586 587 2
586 626 4
587 588 4
587 627 5
588 589 3
588 628 2
589 590 4
589 629 2
590 591 2
590 630 5
591 592 5
591 631 3
592 593 4
592 632 3
593 594 4
593 633 3
594 595 2
594 634 1
595 596 3
595 635 2
596 597 2
596 636 3
597 598 5
597 637 5
598 599 5
598 638 2
599 600 1
599 639 1
600 640 5
601 602 2
601 641 4
602 603 2
602 642 3
603 604 4
603 643 1
604 605 2
604 644 1
605 606 5
605 645 3
606 607 2
606 646 4
607 608 5
607 647 3
608 609 1
608 648 2
609 610 5
609 649 3
610 611 5
610 650 1
611 612 3
611 651 5
612 613 5
612 652 1
613 614 1
613 653 3
614 615 5
614 654 5
615 616 4
615 655 5
616 617 3
616 656 1
617 618 5
617 657 3
618 619 4
618 658 5
619 620 1
619 659 5
620 621 1
620 660 4
621 622 4
621 661 2
622 623 5
622 662 2
623 624 1
623 663 3
624 625 2
624 664 5
625 626 2
625 665 2
626 627 4
626 666 2
627 628 2
627 667 1
628 629 4
628 668 5
629 630 5
629 669 4
630 631 5
630 670 1
631 632 4
631 671 2
632 633 3
632 672 3
633 634 5
633 673 4
634 635 4
634 674 3
635 636 5
635 675 5
636 637 2
636 676 5
637 638 1
637 677 3
638 639 2
638 678 3
639 640 5
639 679 2
640 680 3
641 642 5
641 681 2
642 643 3
642 682 2
643 644 5
643 683 5
644 645 4
644 684 3
645 646 1
645 685 4
646 647 3
646 686 5
647 648 2
647 687 4
648 649 3
648 688 4
649 650 3
649 689 5
650 651 2
650 690 2
651 652 3
651 691 5
652 653 3
652 692 5
653 654 4
653 693 5
654 655 5
654 694 1
655 656 5
655 695 1
656 657 3
656 696 5
657 658 4
657 697 5
658 659 3
658 698 1
659 660 1
659 699 3
660 661 4
660 700 4
661 662 3
661 701 3
662 663 4
662 702 2
663 664 5
663 703 5
664 665 4
664 704 5
665 666 2
665 705 2
666 667 1
666 706 3
667 668 4
667 707 3
668 669 4
668 708 3
669 670 1
669 709 2
670 671 4
670 710 2
671 672 4
671 711 2
672 673 2
672 712 1
673 674 1
673 713 3
674 675 5
674 714 1
675 676 5
675 715 2
676 677 1
676 716 2
677 678 3
677 717 2
678 679 5
678 718 3
679 680 1
679 719 5
680 720 2
681 682 4
681 721 4
682 683 5
682 722 1
683 684 4
683 723 4
684 685 2
684 724 3
685 686 2
685 725 1
686 687 5
686 726 4
687 688 2
687 727 1
688 689 5
688 728 2
689 690 4
689 729 3
690 691 2
690 730 2
691 692 5
691 731 2
692 693 5
692 732 3
693 694 3
693 733 1
694 695 5
694 734 4
695 696 1
695 735 1
696 697 5
696 736 1
697 698 1
697 737 1
698 699 3
698 738 2
699 700 1
699 739 3
700 701 4
700 740 5
701 702 3
701 741 5
702 703 2
702 742 5
703 704 1
703 743 1
704 705 3
704 744 2
705 706 1
705 745 5
706 707 1
706 746 3
707 708 3
707 747 3
708 709 1
708 748 3
709 710 5
709 749 5
710 711 1
710 750 2
711 712 4
711 751 2
712 713 5
712 752 3
713 714 1
713 753 5
714 715 5
714 754 4
715 716 4
715 755 1
716 717 3
716 756 1
717 718 3
717 757 3
718 719 2
718 758 3
719 720 5
719 759 5
720 760 4
721 722 5
721 761 3
722 723 5
722 762 5
723 724 5
723 763 5
724 725 5
724 764 5
725 726 4
725 765 4
726 727 1
726 766 4
727 728 1
727 767 4
728 729 5
728 768 1
729 730 2
729 769 3
730 731 2
730 770 2
731 732 3
731 771 2
732 733 3
732 772 2
733 734 4
733 773 4
734 735 4
734 774 2
735 736 4
735 775 3
736 737 1
736 776 4
737 738 2
737 777 1
738 739 5
738 778 5
739 740 5
739 779 1
740 741 1
740 780 1
741 742 2
741 781 2
742 743 1
742 782 4
743 744 1
743 783 3
744 745 1
744 784 1
745 746 2
745 785 1
746 747 2
746 786 1
747 748 5
747 787 1
748 749 5
748 788 3
749 750 2
749 789 3
750 751 1
750 790 1
751 752 4
751 791 4
752 753 5
752 792 4
753 754 4
753 793 1
754 755 5
754 794 5
755 756 1
755 795 5
756 757 5
756 796 5
757 758 3
757 797 2
758 759 4
758 798 5
759 760 5
759 799 5
760 800 4
761 762 4
761 801 4
762 763 5
762 802 5
763 764 3
763 803 1
764 765 5
764 804 2
765 766 4
765 805 3
766 767 5
766 806 4
767 768 1
767 807 1
768 769 2
768 808 1
769 770 4
769 809 1
770 771 3
770 810 5
771 772 1
771 811 1
772 773 4
772 812 3
773 774 5
773 813 4
774 775 5
774 814 2
775 776 2
775 815 4
776 777 3
776 816 5
777 778 5
777 817 2
778 779 5
778 818 5
779 780 1
779 819 4
780 781 5
780 820 5
781 782 3
781 821 2
782 783 5
782 822 5
783 784 3
783 823 5
784 785 4
784 824 5
785 786 1
785 825 2
786 787 2
786 826 2
787 788 2
787 827 1
788 789 1
788 828 4
789 790 3
789 829 1
790 791 1
790 830 1
791 792 3
791 831 1
792 793 3
792 832 2
793 794 4
793 833 3
794 795 3
794 834 5
795 796 4
795 835 5
796 797 5
796 836 1
797 798 2
797 837 4
798 799 3
798 838 2
799 800 5
799 839 1
800 840 3
801 802 1
801 841 3
802 803 1
802 842 2
803 804 4
803 843 2
804 805 1
804 844 5
805 806 4
805 845 4
806 807 1
806 846 2
807 808 5
807 847 2
808 809 4
808 848 3
809 810 1
809 849 2
810 811 3
810 850 3
811 812 1
811 851 5
812 813 5
812 852 2
813 814 2
813 853 3
814 815 1
814 854 1
815 816 1
815 855 5
816 817 1
816 856 4
817 818 4
817 857 4
818 819 3
818 858 4
819 820 4
819 859 3
820 821 2
820 860 1
821 822 1
821 861 2
822 823 3
822 862 5
823 824 5
823 863 3
824 825 5
824 864 3
825 826 1
825 865 4
826 827 3
826 866 1
827 828 3
827 867 5
828 829 5
828 868 5
829 830 5
829 869 5
830 831 1
830 870 5
831 832 2
831 871 5
832 833 5
832 872 5
833 834 4
833 873 1
834 835 2
834 874 3
835 836 3
835 875 3
836 837 4
836 876 3
837 838 1
837 877 1
838 839 1
838 878 3
839 840 1
839 879 2
840 880 2
841 842 1
841 881 5
842 843 1
842 882 2
843 844 2
843 883 4
844 845 5
844 884 1
845 846 2
845 885 5
846 847 3
846 886 5
847 848 1
847 887 2
848 849 3
848 888 2
849 850 2
849 889 1
850 851 3
850 890 5
851 852 2
851 891 5
852 853 4
852 892 5
853 854 3
853 893 3
854 855 5
854 894 5
855 856 2
855 895 2
856 857 4
856 896 4
857 858 1
857 897 5
858 859 3
858 898 2
859 860 1
859 899 2
860 861 1
860 900 4
861 862 1
861 901 5
862 863 1
862 902 1
863 864 5
863 903 1
864 865 5
864 904 2
865 866 4
865 905 3
866 867 2
866 906 2
867 868 5
867 907 2
868 869 4
868 908 5
869 870 4
869 909 4
870 871 3
870 910 1
871 872 4
871 911 1
872 873 5
872 912 1
873 874 1
873 913 1
874 875 3
874 914 2
875 876 5
875 915 5
876 877 1
876 916 1
877 878 5
877 917 5
878 879 2
878 918 3
879 880 3
879 919 1
880 920 3
881 882 5
881 921 2
882 883 3
882 922 3
883 884 2
883 923 1
884 885 1
884 924 5
885 886 3
885 925 5
886 887 2
886 926 3
887 888 2
887 927 1
888 889 4
888 928 5
889 890 2
889 929 2
890 891 1
890 930 5
891 892 1
891 931 5
892 893 5
892 932 1
893 894 4
893 933 1
894 895 3
894 934 1
895 896 3
895 935 5
896 897 2
896 936 2
897 898 3
897 937 3
898 899 5
898 938 5
899 900 1
899 939 4
900 901 3
900 940 4
901 902 4
901 941 4
902 903 2
902 942 3
903 904 5
903 943 2
904 905 3
904 944 2
905 906 1
905 945 4
906 907 5
906 946 5
907 908 3
907 947 1
908 909 5
908 948 5
909 910 3
909 949 5
910 911 2
910 950 5
911 912 2
911 951 2
912 913 5
912 952 5
913 914 1
913 953 3
914 915 1
914 954 5
915 916 1
915 955 2
916 917 5
916 956 5
917 918 4
917 957 4
918 919 4
918 958 1
919 920 1
919 959 3
920 960 1
921 922 2
921 961 2
922 923 2
922 962 5
923 924 4
923 963 3
924 925 4
924 964 5
925 926 3
925 965 3
926 927 3
926 966 5
927 928 3
927 967 4
928 929 3
928 968 4
929 930 2
929 969 2
930 931 4
930 970 4
931 932 2
931 971 2
932 933 4
932 972 1
933 934 2
933 973 1
934 935 1
934 974 1
935 936 2
935 975 3
936 937 4
936 976 3
937 938 4
937 977 5
938 939 1
938 978 1
939 940 5
939 979 5
940 941 3
940 980 1
941 942 4
941 981 2
942 943 3
942 982 4
943 944 5
943 983 1
944 945 3
944 984 1
945 946 3
945 985 1
946 947 5
946 986 2
947 948 1
947 987 2
948 949 4
948 988 3
949 950 5
949 989 3
950 951 4
950 990 1
951 952 5
951 991 5
952 953 3
952 992 3
953 954 4
953 993 5
954 955 1
954 994 3
955 956 5
955 995 5
956 957 4
956 996 4
957 958 1
957 997 3
958 959 3
958 998 4
959 960 2
959 999 5
960 1000 1
961 962 2
961 1001 5
962 963 3
962 1002 4
963 964 3
963 1003 4
964 965 1
964 1004 1
965 966 1
965 1005 3
966 967 1
966 1006 1
967 968 1
967 1007 1
968 969 5
968 1008 2
969 970 4
969 1009 2
970 971 4
970 1010 5
971 972 5
971 1011 3
972 973 3
972 1012 5
973 974 1
973 1013 3
974 975 3
974 1014 3
975 976 5
975 1015 4
976 977 1
976 1016 4
977 978 3
977 1017 1
978 979 3
978 1018 2
979 980 2
979 1019 1
980 981 3
980 1020 1
981 982 2
981 1021 3
982 983 1
982 1022 3
983 984 4
983 1023 3
984 985 5
984 1024 3
985 986 4
985 1025 2
986 987 5
986 1026 5
987 988 3
987 1027 5
988 989 4
988 1028 5
989 990 1
989 1029 4
990 991 4
990 1030 5
991 992 3
991 1031 4
992 993 2
992 1032 5
993 994 4
993 1033 1
994 995 2
994 1034 2
995 996 4
995 1035 2
996 997 5
996 1036 3
997 998 5
997 1037 1
998 999 5
998 1038 3
999 1000 5
999 1039 4
1000 1040 1
1001 1002 3
1001 1041 5
1002 1003 3
1002 1042 2
1003 1004 5
1003 1043 2
1004 1005 3
1004 1044 5
1005 1006 1
1005 1045 5
1006 1007 2
1006 1046 1
1007 1008 2
1007 1047 5
1008 1009 1
1008 1048 1
1009 1010 2
1009 1049 3
1010 1011 1
1010 1050 1
1011 1012 1
1011 1051 2
1012 1013 5
1012 1052 3
1013 1014 3
1013 1053 3
1014 1015 5
1014 1054 5
1015 1016 5
1015 1055 3
1016 1017 3
1016 1056 5
1017 1018 5
1017 1057 3
1018 1019 1
1018 1058 4
1019 1020 1
1019 1059 1
1020 1021 2
1020 1060 3
1021 1022 4
1021 1061 5
1022 1023 2
1022 1062 2
1023 1024 2
1023 1063 5
1024 1025 3
1024 1064 5
1025 1026 5
1025 1065 3
1026 1027 5
1026 1066 3
1027 1028 3
1027 1067 5
1028 1029 4
1028 1068 1
1029 1030 1
1029 1069 2
1030 1031 4
1030 1070 5
1031 1032 5
1031 1071 4
1032 1033 3
1032 1072 5
1033 1034 1
1033 1073 5
1034 1035 2
1034 1074 5
1035 1036 5
1035 1075 5
1036 1037 5
1036 1076 5
1037 1038 3
1037 1077 5
1038 1039 3
1038 1078 1
1039 1040 5
1039 1079 1
1040 1080 4
1041 1042 3
1041 1081 4
1042 1043 3
1042 1082 5
1043 1044 5
1043 1083 2
1044 1045 4
1044 1084 2
1045 1046 3
1045 1085 3
1046 1047 3
1046 1086 1
1047 1048 4
1047 1087 4
1048 1049 1
1048 1088 2
1049 1050 3
1049 1089 3
1050 1051 4
1050 1090 5
1051 1052 3
1051 1091 2
1052 1053 5
1052 1092 1
1053 1054 5
1053 1093 1
1054 1055 2
1054 1094 3
1055 1056 4
1055 1095 3
1056 1057 3
1056 1096 4
1057 1058 2
1057 1097 5
1058 1059 2
1058 1098 4
1059 1060 1
1059 1099 5
1060 1061 4
1060 1100 3
1061 1062 3
1061 1101 1
1062 1063 2
1062 1102 1
1063 1064 3
1063 1103 5
1064 1065 4
1064 1104 4
1065 1066 5
1065 1105 2
1066 1067 5
1066 1106 1
1067 1068 4
1067 1107 2
1068 1069 4
1068 1108 2
1069 1070 2
1069 1109 5
1070 1071 4
1070 1110 2
1071 1072 4
1071 1111 2
1072 1073 2
1072 1112 3
1073 1074 2
1073 1113 4
1074 1075 4
1074 1114 1
1075 1076 5
1075 1115 3
1076 1077 4
1076 1116 1
1077 1078 2
1077 1117 2
1078 1079 3
1078 1118 1
1079 1080 1
1079 1119 1
1080 1120 1
1081 1082 3
1081 1121 2
1082 1083 1
1082 1122 2
1083 1084 4
1083 1123 5
1084 1085 2
1084 1124 3
1085 1086 2
1085 1125 5
1086 1087 2
1086 1126 5
1087 1088 1
1087 1127 5
1088 1089 3
1088 1128 3
1089 1090 1
1089 1129 2
1090 1091 4
1090 1130 4
1091 1092 1
1091 1131 3
1092 1093 2
1092 1132 1
1093 1094 5
1093 1133 5
1094 1095 1
1094 1134 2
1095 1096 3
1095 1135 4
1096 1097 3
1096 1136 4
1097 1098 1
1097 1137 5
1098 1099 5
1098 1138 2
1099 1100 3
1099 1139 5
1100 1101 2
1100 1140 5
1101 1102 3
1101 1141 2
1102 1103 3
1102 1142 4
1103 1104 1
1103 1143 2
1104 1105 3
1104 1144 2
1105 1106 5
1105 1145 1
1106 1107 1
1106 1146 3
1107 1108 2
1107 1147 1
1108 1109 2
1108 1148 3
1109 1110 4
1109 1149 4
1110 1111 4
1110 1150 2
1111 1112 2
1111 1151 3
1112 1113 3
1112 1152 4
1113 1114 1
1113 1153 3
1114 1115 3
1114 1154 2
1115 1116 1
1115 1155 3
1116 1117 3
1116 1156 5
1117 1118 1
1117 1157 2
1118 1119 1
1118 1158 3
1119 1120 4
1119 1159 4
1120 1160 3
1121 1122 5
1121 1161 3
1122 1123 2
1122 1162 5
1123 1124 5
1123 1163 3
1124 1125 2
1124 1164 5
1125 1126 5
1125 1165 1
1126 1127 5
1126 1166 3
1127 1128 3
1127 1167 1
1128 1129 3
1128 1168 2
1129 1130 4
1129 1169 5
1130 1131 3
1130 1170 5
1131 1132 1
1131 1171 3
1132 1133 2
1132 1172 4
1133 1134 5
1133 1173 5
1134 1135 1
1134 1174 3
1135 1136 5
1135 1175 4
1136 1137 5
1136 1176 2
1137 1138 4
1137 1177 4
1138 1139 2
1138 1178 2
1139 1140 3
1139 1179 4
1140 1141 5
1140 1180 2
1141 1142 3
1141 1181 2
1142 1143 2
1142 1182 2
1143 1144 1
1143 1183 4
1144 1145 5
1144 1184 4
1145 1146 1
1145 1185 4
1146 1147 2
1146 1186 2
1147 1148 5
1147 1187 2
1148 1149 4
1148 1188 5
1149 1150 5
1149 1189 2
1150 1151 3
1150 1190 4
1151 1152 3
1151 1191 2
1152 1153 5
1152 1192 2
1153 1154 3
1153 1193 3
1154 1155 3
1154 1194 2
1155 1156 4
1155 1195 2
1156 1157 4
1156 1196 5
1157 1158 4
1157 1197 3
1158 1159 3
1158 1198 5
1159 1160 2
1159 1199 3
1160 1200 2
1161 1162 1
1161 1201 2
1162 1163 3
1162 1202 3
1163 1164 2
1163 1203 3
1164 1165 4
1164 1204 2
1165 1166 5
1165 1205 4
1166 1167 4
1166 1206 4
1167 1168 5
1167 1207 1
1168 1169 2
1168 1208 5
1169 1170 3
1169 1209 5
1170 1171 5
1170 1210 1
1171 1172 4
1171 1211 2
1172 1173 1
1172 1212 5
1173 1174 2
1173 1213 1
1174 1175 3
1174 1214 3
1175 1176 2
1175 1215 3
1176 1177 5
1176 1216 3
1177 1178 4
1177 1217 3
1178 1179 4
1178 1218 1
1179 1180 5
1179 1219 1
1180 1181 5
1180 1220 4
1181 1182 5
1181 1221 2
1182 1183 2
1182 1222 2
1183 1184 1
1183 1223 5
1184 1185 5
1184 1224 1
1185 1186 5
1185 1225 4
1186 1187 5
1186 1226 1
1187 1188 1
1187 1227 3
1188 1189 5
1188 1228 2
1189 1190 1
1189 1229 4
1190 1191 5
1190 1230 2
1191 1192 3
1191 1231 2
1192 1193 4
1192 1232 2
1193 1194 1
1193 1233 4
1194 1195 1
1194 1234 1
1195 1196 5
1195 1235 5
1196 1197 2
1196 1236 4
1197 1198 3
1197 1237 3
1198 1199 4
1198 1238 1
1199 1200 4
1199 1239 5
1200 1240 2
1201 1202 3
1201 1241 5
1202 1203 5
1202 1242 3
1203 1204 1
1203 1243 2
1204 1205 5
1204 1244 3
1205 1206 2
1205 1245 4
1206 1207 3
1206 1246 1
1207 1208 3
1207 1247 5
1208 1209 4
1208 1248 2
1209 1210 1
1209 1249 3
1210 1211 2
1210 1250 5
1211 1212 4
1211 1251 4
1212 1213 3
1212 1252 5
1213 1214 4
1213 1253 4
1214 1215 2
1214 1254 4
1215 1216 5
1215 1255 5
1216 1217 5
1216 1256 2
1217 1218 5
1217 1257 1
1218 1219 4
1218 1258 3
1219 1220 4
1219 1259 5
1220 1221 4
1220 1260 3
1221 1222 2
1221 1261 1
1222 1223 3
1222 1262 4
1223 1224 1
1223 1263 4
1224 1225 1
1224 1264 4
1225 1226 2
1225 1265 3
1226 1227 3
1226 1266 5
1227 1228 3
1227 1267 4
1228 1229 1
1228 1268 4
1229 1230 5
1229 1269 4
1230 1231 3
1230 1270 3
1231 1232 2
1231 1271 5
1232 1233 5
1232 1272 2
1233 1234 5
1233 1273 4
1234 1235 4
1234 1274 5
1235 1236 5
1235 1275 3
1236 1237 5
1236 1276 5
1237 1238 5
1237 1277 2
1238 1239 3
1238 1278 3
1239 1240 1
1239 1279 3
1240 1280 1
1241 1242 2
1241 1281 2
1242 1243 2
1242 1282 4
1243 1244 5
1243 1283 4
1244 1245 3
1244 1284 1
1245 1246 2
1245 1285 2
1246 1247 4
1246 1286 5
1247 1248 3
1247 1287 1
1248 1249 5
1248 1288 1
1249 1250 1
1249 1289 1
1250 1251 2
1250 1290 4
1251 1252 1
1251 1291 5
1252 1253 5
1252 1292 1
1253 1254 2
1253 1293 2
1254 1255 5
1254 1294 4
1255 1256 2
1255 1295 3
1256 1257 2
1256 1296 3
1257 1258 4
1257 1297 5
1258 1259 2
1258 1298 3
1259 1260 5
1259 1299 2
1260 1261 1
1260 1300 4
1261 1262 1
1261 1301 2
1262 1263 5
1262 1302 2
1263 1264 4
1263 1303 1
1264 1265 3
1264 1304 3
1265 1266 4
1265 1305 1
1266 1267 3
1266 1306 4
1267 1268 3
1267 1307 5
1268 1269 5
1268 1308 3
1269 1270 1
1269 1309 2
1270 1271 3
1270 1310 5
1271 1272 4
1271 1311 5
1272 1273 2
1272 1312 4
1273 1274 4
1273 1313 1
1274 1275 5
1274 1314 3
1275 1276 5
1275 1315 4
1276 1277 1
1276 1316 1
1277 1278 1
1277 1317 1
1278 1279 3
1278 1318 1
1279 1280 4
1279 1319 4
1280 1320 2
1281 1282 2
1281 1321 2
1282 1283 3
1282 1322 3
1283 1284 5
1283 1323 1
1284 1285 5
1284 1324 4
1285 1286 4
1285 1325 3
1286 1287 4
1286 1326 3
1287 1288 2
1287 1327 2
1288 1289 3
1288 1328 2
1289 1290 3
1289 1329 4
1290 1291 5
1290 1330 1
1291 1292 3
1291 1331 1
1292 1293 3
1292 1332 2
1293 1294 4
1293 1333 1
1294 1295 3
1294 1334 4
1295 1296 4
1295 1335 1
1296 1297 2
1296 1336 2
1297 1298 4
1297 1337 3
1298 1299 4
1298 1338 4
1299 1300 5
1299 1339 5
1300 1301 1
1300 1340 4
1301 1302 4
1301 1341 1
1302 1303 1
1302 1342 4
1303 1304 5
1303 1343 3
1304 1305 4
1304 1344 5
1305 1306 4
1305 1345 4
1306 1307 3
1306 1346 2
1307 1308 2
1307 1347 4
1308 1309 2
1308 1348 3
1309 1310 4
1309 1349 1
1310 1311 2
1310 1350 4
1311 1312 2
1311 1351 4
1312 1313 4
1312 1352 2
1313 1314 5
1313 1353 5
1314 1315 2
1314 1354 2
1315 1316 3
1315 1355 4
1316 1317 1
1316 1356 5
1317 1318 4
1317 1357 3
1318 1319 5
1318 1358 1
1319 1320 4
1319 1359 5
1320 1360 1
1321 1322 1
1321 1361 2
1322 1323 5
1322 1362 3
1323 1324 4
1323 1363 3
1324 1325 5
1324 1364 3
1325 1326 3
1325 1365 1
1326 1327 3
1326 1366 5
1327 1328 1
1327 1367 4
1328 1329 4
1328 1368 1
1329 1330 2
1329 1369 4
1330 1331 5
1330 1370 2
1331 1332 5
1331 1371 2
1332 1333 2
1332 1372 1
1333 1334 4
1333 1373 5
1334 1335 4
1334 1374 2
1335 1336 5
1335 1375 3
1336 1337 3
1336 1376 2
1337 1338 1
1337 1377 2
1338 1339 4
1338 1378 3
1339 1340 1
1339 1379 2
1340 1341 1
1340 1380 4
1341 1342 4
1341 1381 4
1342 1343 1
1342 1382 5
1343 1344 2
1343 1383 5
1344 1345 2
1344 1384 2
1345 1346 5
1345 1385 5
1346 1347 4
1346 1386 5
1347 1348 3
1347 1387 4
1348 1349 4
1348 1388 2
1349 1350 1
1349 1389 2
1350 1351 2
1350 1390 5
1351 1352 2
1351 1391 3
1352 1353 2
1352 1392 1
1353 1354 4
1353 1393 4
1354 1355 3
1354 1394 5
1355 1356 5
1355 1395 3
1356 1357 3
1356 1396 3
1357 1358 2
1357 1397 5
1358 1359 5
1358 1398 5
1359 1360 4
1359 1399 5
1360 1400 4
1361 1362 3
1361 1401 5
1362 1363 1
1362 1402 2
1363 1364 4
1363 1403 3
1364 1365 5
1364 1404 4
1365 1366 1
1365 1405 2
1366 1367 5
1366 1406 3
1367 1368 2
1367 1407 4
1368 1369 5
1368 1408 2
1369 1370 4
1369 1409 3
1370 1371 1
1370 1410 2
1371 1372 4
1371 1411 3
1372 1373 2
1372 1412 1
1373 1374 5
1373 1413 3
1374 1375 4
1374 1414 1
1375 1376 4
1375 1415 2
1376 1377 4
1376 1416 2
1377 1378 4
1377 1417 3
1378 1379 2
1378 1418 4
1379 1380 5
1379 1419 1
1380 1381 2
1380 1420 4
1381 1382 3
1381 1421 4
1382 1383 5
1382 1422 1
1383 1384 3
1383 1423 4
1384 1385 2
1384 1424 3
1385 1386 2
1385 1425 3
1386 1387 2
1386 1426 1
1387 1388 3
1387 1427 3
1388 1389 1
1388 1428 1
1389 1390 4
1389 1429 5
1390 1391 3
1390 1430 4
1391 1392 1
1391 1431 1
1392 1393 5
1392 1432 2
1393 1394 5
1393 1433 5
1394 1395 3
1394 1434 3
1395 1396 4
1395 1435 5
1396 1397 1
1396 1436 2
1397 1398 5
1397 1437 5
1398 1399 1
1398 1438 2
1399 1400 3
1399 1439 1
1400 1440 1
1401 1402 5
1401 1441 5
1402 1403 1
1402 1442 3
1403 1404 2
1403 1443 5
1404 1405 1
1404 1444 5
1405 1406 4
1405 1445 2
1406 1407 4
1406 1446 3
1407 1408 4
1407 1447 1
1408 1409 1
1408 1448 2
1409 1410 5
1409 1449 1
1410 1411 2
1410 1450 2
1411 1412 2
1411 1451 5
1412 1413 5
1412 1452 2
1413 1414 3
1413 1453 5
1414 1415 4
1414 1454 1
1415 1416 5
1415 1455 5
1416 1417 5
1416 1456 1
1417 1418 5
1417 1457 1
1418 1419 4
1418 1458 4
1419 1420 3
1419 1459 3
1420 1421 3
1420 1460 1
1421 1422 5
1421 1461 2
1422 1423 3
1422 1462 3
1423 1424 4
1423 1463 4
1424 1425 3
1424 1464 3
1425 1426 2
1425 1465 5
1426 1427 3
1426 1466 5
1427 1428 1
1427 1467 1
1428 1429 3
1428 1468 2
1429 1430 1
1429 1469 5
1430 1431 3
1430 1470 1
1431 1432 1
1431 1471 3
1432 1433 3
1432 1472 3
1433 1434 4
1433 1473 5
1434 1435 1
1434 1474 1
1435 1436 2
1435 1475 2
1436 1437 2
1436 1476 5
1437 1438 2
1437 1477 5
1438 1439 5
1438 1478 2
1439 1440 3
1439 1479 2
1440 1480 1
1441 1442 3
1441 1481 3
1442 1443 1
1442 1482 2
1443 1444 3
1443 1483 2
1444 1445 1
1444 1484 1
1445 1446 4
1445 1485 1
1446 1447 5
1446 1486 1
1447 1448 5
1447 1487 2
1448 1449 2
1448 1488 2
1449 1450 4
1449 1489 2
1450 1451 3
1450 1490 5
1451 1452 4
1451 1491 5
1452 1453 2
1452 1492 4
1453 1454 2
1453 1493 3
1454 1455 4
1454 1494 3
1455 1456 3
1455 1495 3
1456 1457 5
1456 1496 5
1457 1458 5
1457 1497 2
1458 1459 4
1458 1498 2
1459 1460 4
1459 1499 5
1460 1461 5
1460 1500 1
1461 1462 4
1461 1501 2
1462 1463 4
1462 1502 5
1463 1464 3
1463 1503 5
1464 1465 5
1464 1504 1
1465 1466 3
1465 1505 4
1466 1467 3
1466 1506 4
1467 1468 3
1467 1507 3
1468 1469 2
1468 1508 3
1469 1470 5
1469 1509 4
1470 1471 2
1470 1510 3
1471 1472 4
1471 1511 2
1472 1473 2
1472 1512 1
1473 1474 5
1473 1513 2
1474 1475 1
1474 1514 5
1475 1476 2
1475 1515 4
1476 1477 1
1476 1516 2
1477 1478 3
1477 1517 1
1478 1479 2
1478 1518 4
1479 1480 2
1479 1519 1
1480 1520 2
1481 1482 4
1481 1521 1
1482 1483 2
1482 1522 3
1483 1484 4
1483 1523 3
1484 1485 3
1484 1524 5
1485 1486 2
1485 1525 3
1486 1487 4
1486 1526 3
1487 1488 1
1487 1527 5
1488 1489 3
1488 1528 4
1489 1490 3
1489 1529 5
1490 1491 5
1490 1530 1
1491 1492 5
1491 1531 2
1492 1493 4
1492 1532 2
1493 1494 5
1493 1533 5
1494 1495 5
1494 1534 3
1495 1496 5
1495 1535 1
1496 1497 1
1496 1536 1
1497 1498 1
1497 1537 2
1498 1499 5
1498 1538 5
1499 1500 5
1499 1539 4
1500 1501 1
1500 1540 2
1501 1502 1
1501 1541 3
1502 1503 5
1502 1542 5
1503 1504 1
1503 1543 2
1504 1505 4
1504 1544 5
1505 1506 3
1505 1545 2
1506 1507 5
1506 1546 4
1507 1508 4
1507 1547 2
1508 1509 2
1508 1548 5
1509 1510 2
1509 1549 1
1510 1511 4
1510 1550 4
1511 1512 4
1511 1551 3
1512 1513 1
1512 1552 3
1513 1514 2
1513 1553 1
1514 1515 1
1514 1554 2
1515 1516 4
1515 1555 1
1516 1517 1
1516 1556 4
1517 1518 1
1517 1557 2
1518 1519 3
1518 1558 1
1519 1520 4
1519 1559 1
1520 1560 4
1521 1522 5
1521 1561 4
1522 1523 4
1522 1562 4
1523 1524 2
1523 1563 4
1524 1525 4
1524 1564 1
1525 1526 3
1525 1565 3
1526 1527 2
1526 1566 2
1527 1528 5
1527 1567 3
1528 1529 1
1528 1568 2
1529 1530 4
1529 1569 5
1530 1531 4
1530 1570 2
1531 1532 2
1531 1571 1
1532 1533 4
1532 1572 5
1533 1534 1
1533 1573 5
1534 1535 3
1534 1574 5
1535 1536 5
1535 1575 3
1536 1537 3
1536 1576 2
1537 1538 2
1537 1577 3
1538 1539 4
1538 1578 5
1539 1540 3
1539 1579 5
1540 1541 1
1540 1580 4
1541 1542 5
1541 1581 3
1542 1543 5
1542 1582 3
1543 1544 1
1543 1583 2
1544 1545 4
1544 1584 2
1545 1546 1
1545 1585 2
1546 1547 2
1546 1586 2
1547 1548 1
1547 1587 2
1548 1549 1
1548 1588 5
1549 1550 3
1549 1589 3
1550 1551 2
1550 1590 2
1551 1552 3
1551 1591 4
1552 1553 2
1552 1592 3
1553 1554 3
1553 1593 5
1554 1555 4
1554 1594 4
1555 1556 1
1555 1595 1
1556 1557 3
1556 1596 1
1557 1558 2
1557 1597 5
1558 1559 2
1558 1598 4
1559 1560 4
1559 1599 2
1560 1600 3
1561 1562 3
1562 1563 1
1563 1564 5
1564 1565 4
1565 1566 4
1566 1567 3
1567 1568 2
1568 1569 3
1569 1570 3
1570 1571 3
1571 1572 4
1572 1573 2
1573 1574 3
1574 1575 5
1575 1576 3
1576 1577 2
1577 1578 4
1578 1579 5
1579 1580 3
1580 1581 1
1581 1582 4
1582 1583 5
1583 1584 2
1584 1585 1
1585 1586 3
1586 1587 3
1587 1588 2
1588 1589 5
1589 1590 2
1590 1591 3
1591 1592 2
1592 1593 3
1593 1594 5
1594 1595 2
1595 1596 3
1596 1597 2
1597 1598 5
1598 1599 2
1599 1600 5
1 1561 5
2 1562 5
3 1563 2
4 1564 3
5 1565 2
6 1566 3
7 1567 1
8 1568 4
9 1569 1
10 1570 3
11 1571 4
12 1572 2
13 1573 5
14 1574 2
15 1575 5
16 1576 1
17 1577 4
18 1578 1
19 1579 5
20 1580 3
21 1581 5
22 1582 3
23 1583 5
24 1584 2
25 1585 1
26 1586 3
27 1587 4
28 1588 3
29 1589 5
30 1590 2
31 1591 5
32 1592 4
33 1593 3
34 1594 5
35 1595 2
36 1596 3
37 1597 2
38 1598 4
39 1599 5
40 1600 2
1 40 3
41 80 5
81 120 4
121 160 4
161 200 5
201 240 4
241 280 5
281 320 5
321 360 1
361 400 4
401 440 4
441 480 2
481 520 2
521 560 1
561 600 1
601 640 1
641 680 5
681 720 2
721 760 2
761 800 1
801 840 2
841 880 4
881 920 2
921 960 3
961 1000 3
1001 1040 4
1041 1080 5
1081 1120 5
1121 1160 2
1161 1200 1
1201 1240 3
1241 1280 2
1281 1320 1
1321 1360 5
1361 1400 3
1401 1440 2
1441 1480 1
1481 1520 4
1521 1560 5
1561 1600 5
